
(set-logic HORN)
(define-fun zero_145 () Int 0)
(define-fun succ_141 ((x Int)) Int (+ x 1))
(declare-datatypes ((Bool_310 0)) (((false_310) (true_310))))
(declare-fun diseqBool_143 (Bool_310 Bool_310) Bool)
(declare-fun isfalse_143 (Bool_310) Bool)
(declare-fun istrue_143 (Bool_310) Bool)
(assert (isfalse_143 false_310))
(assert (istrue_143 true_310))
(assert (diseqBool_143 false_310 true_310))
(assert (diseqBool_143 true_310 false_310))
(declare-fun and_310 (Bool_310 Bool_310 Bool_310) Bool)
(declare-fun or_317 (Bool_310 Bool_310 Bool_310) Bool)
(declare-fun hence_310 (Bool_310 Bool_310 Bool_310) Bool)
(declare-fun not_315 (Bool_310 Bool_310) Bool)
(assert (and_310 false_310 false_310 false_310))
(assert (and_310 false_310 true_310 false_310))
(assert (and_310 false_310 false_310 true_310))
(assert (and_310 true_310 true_310 true_310))
(assert (or_317 false_310 false_310 false_310))
(assert (or_317 true_310 true_310 false_310))
(assert (or_317 true_310 false_310 true_310))
(assert (or_317 true_310 true_310 true_310))
(assert (hence_310 true_310 false_310 false_310))
(assert (hence_310 false_310 true_310 false_310))
(assert (hence_310 true_310 false_310 true_310))
(assert (hence_310 true_310 true_310 true_310))
(assert (not_315 true_310 false_310))
(assert (not_315 false_310 true_310))
(declare-fun diseqInt (Int Int) Bool)
(declare-fun p_392 (Int Int) Bool)
(declare-fun iszero_141 (Int) Bool)
(declare-fun issucc_141 (Int) Bool)
(assert (forall ((x_53638 Int))
	(p_392 x_53638 (succ_141 x_53638))))
(assert (iszero_141 zero_145))
(assert (forall ((x_53640 Int))
	(issucc_141 (succ_141 x_53640))))
(assert (forall ((x_53641 Int))
	(diseqInt zero_145 (succ_141 x_53641))))
(assert (forall ((x_53642 Int))
	(diseqInt (succ_141 x_53642) zero_145)))
(assert (forall ((x_53643 Int) (x_53644 Int))
	(=> (diseqInt x_53643 x_53644) (diseqInt (succ_141 x_53643) (succ_141 x_53644)))))
(declare-fun leq_54 (Bool_310 Int Int) Bool)
(assert (forall ((x_53626 Bool_310) (x_53623 Int) (z_1884 Int))
	(=> (leq_54 x_53626 z_1884 x_53623) (leq_54 x_53626 (succ_141 z_1884) (succ_141 x_53623)))))
(assert (forall ((z_1884 Int))
	(leq_54 false_310 (succ_141 z_1884) zero_145)))
(assert (forall ((y_2115 Int))
	(leq_54 true_310 zero_145 y_2115)))
(declare-fun geq_3 (Bool_310 Int Int) Bool)
(assert (forall ((x_53630 Bool_310) (x_53624 Int) (y_2116 Int))
	(=> (leq_54 x_53630 y_2116 x_53624) (geq_3 x_53630 x_53624 y_2116))))
(assert (forall ((x_53625 Int) (y_2117 Int))
	(=> (and true (diseqInt x_53625 y_2117) (geq_3 true_310 x_53625 y_2117) (geq_3 true_310 y_2117 x_53625)) false)))
(check-sat)
